Instance: E241-22k.dat
Class:  4
  240 --- number of customers (no depot)
   50 --- number of vehicles
  604 --- number of items
Capacity - height - width of vehicles
   200     40     20
Node - x - y - demand
    0     0.0     0.0     0.0
    1     5.8     0.0    40.0
    2     2.9     5.0    40.0
    3    -2.9     5.0    40.0
    4    -5.8     0.0    40.0
    5    -2.9    -5.0    40.0
    6     2.9    -5.0    40.0
    7     8.7     5.0    40.0
    8     0.0    10.0    40.0
    9    -8.7     5.0    40.0
   10    -8.7    -5.0    40.0
   11     0.0   -10.0    40.0
   12     8.7    -5.0    40.0
   13     5.3     0.8    10.0
   14     3.3     4.3    10.0
   15     6.5    -1.3    10.0
   16     7.2    -2.5    20.0
   17     7.9    -3.8    10.0
   18     6.5     1.3    10.0
   19     7.2     2.5    20.0
   20     7.9     3.8    10.0
   21     2.0     5.0    10.0
   22    -2.0     5.0    10.0
   23     4.3     5.0    10.0
   24     5.8     5.0    20.0
   25     7.2     5.0    10.0
   26     2.2     6.3    10.0
   27     1.4     7.5    20.0
   28     0.7     8.8    10.0
   29    -3.3     4.3    10.0
   30    -5.3     0.8    10.0
   31    -2.2     6.3    10.0
   32    -1.4     7.5    20.0
   33    -0.7     8.8    10.0
   34    -4.3     5.0    10.0
   35    -5.8     5.0    20.0
   36    -7.2     5.0    10.0
   37    -5.3    -0.8    10.0
   38    -3.3    -4.3    10.0
   39    -6.5     1.3    10.0
   40    -7.2     2.5    20.0
   41    -7.9     3.8    10.0
   42    -6.5    -1.3    10.0
   43    -7.2    -2.5    20.0
   44    -7.9    -3.8    10.0
   45    -2.0    -5.0    10.0
   46     2.0    -5.0    10.0
   47    -4.3    -5.0    10.0
   48    -5.8    -5.0    20.0
   49    -7.2    -5.0    10.0
   50    -2.2    -6.3    10.0
   51    -1.4    -7.5    20.0
   52    -0.7    -8.8    10.0
   53     3.3    -4.3    10.0
   54     5.3    -0.8    10.0
   55     2.2    -6.3    10.0
   56     1.4    -7.5    20.0
   57     0.7    -8.8    10.0
   58     4.3    -5.0    10.0
   59     5.8    -5.0    20.0
   60     7.2    -5.0    10.0
   61     7.2     0.0    40.0
   62     3.6     6.3    40.0
   63    -3.6     6.3    40.0
   64    -7.2     0.0    40.0
   65    -3.6    -6.3    40.0
   66     3.6    -6.3    40.0
   67    10.8     6.3    40.0
   68     0.0    12.5    40.0
   69   -10.8     6.3    40.0
   70   -10.8    -6.3    40.0
   71     0.0   -12.5    40.0
   72    10.8    -6.3    40.0
   73     6.7     0.9    10.0
   74     4.1     5.3    10.0
   75     8.1    -1.6    10.0
   76     9.0    -3.1    20.0
   77     9.9    -4.7    10.0
   78     8.1     1.6    10.0
   79     9.0     3.1    20.0
   80     9.9     4.7    10.0
   81     2.5     6.3    10.0
   82    -2.5     6.3    10.0
   83     5.4     6.3    10.0
   84     7.2     6.3    20.0
   85     9.0     6.3    10.0
   86     2.7     7.8    10.0
   87     1.8     9.4    20.0
   88     0.9    10.9    10.0
   89    -4.1     5.3    10.0
   90    -6.7     0.9    10.0
   91    -2.7     7.8    10.0
   92    -1.8     9.4    20.0
   93    -0.9    10.9    10.0
   94    -5.4     6.3    10.0
   95    -7.2     6.3    20.0
   96    -9.0     6.3    10.0
   97    -6.7    -0.9    10.0
   98    -4.1    -5.3    10.0
   99    -8.1     1.6    10.0
  100    -9.0     3.1    20.0
  101    -9.9     4.7    10.0
  102    -8.1    -1.6    10.0
  103    -9.0    -3.1    20.0
  104    -9.9    -4.7    10.0
  105    -2.5    -6.3    10.0
  106     2.5    -6.3    10.0
  107    -5.4    -6.3    10.0
  108    -7.2    -6.3    20.0
  109    -9.0    -6.3    10.0
  110    -2.7    -7.8    10.0
  111    -1.8    -9.4    20.0
  112    -0.9   -10.9    10.0
  113     4.1    -5.3    10.0
  114     6.7    -0.9    10.0
  115     2.7    -7.8    10.0
  116     1.8    -9.4    20.0
  117     0.9   -10.9    10.0
  118     5.4    -6.3    10.0
  119     7.2    -6.3    20.0
  120     9.0    -6.3    10.0
  121     9.0     0.0    40.0
  122     4.5     7.8    40.0
  123    -4.5     7.8    40.0
  124    -9.0     0.0    40.0
  125    -4.5    -7.8    40.0
  126     4.5    -7.8    40.0
  127    13.5     7.8    40.0
  128     0.0    15.6    40.0
  129   -13.5     7.8    40.0
  130   -13.5    -7.8    40.0
  131     0.0   -15.6    40.0
  132    13.5    -7.8    40.0
  133     8.3     1.2    10.0
  134     5.2     6.6    10.0
  135    10.1    -2.0    10.0
  136    11.3    -3.9    20.0
  137    12.4    -5.9    10.0
  138    10.1     2.0    10.0
  139    11.3     3.9    20.0
  140    12.4     5.9    10.0
  141     3.2     7.8    10.0
  142    -3.2     7.8    10.0
  143     6.8     7.8    10.0
  144     9.0     7.8    20.0
  145    11.3     7.8    10.0
  146     3.4     9.8    10.0
  147     2.3    11.7    20.0
  148     1.1    13.7    10.0
  149    -5.2     6.6    10.0
  150    -8.3     1.2    10.0
  151    -3.4     9.8    10.0
  152    -2.3    11.7    20.0
  153    -1.1    13.7    10.0
  154    -6.8     7.8    10.0
  155    -9.0     7.8    20.0
  156   -11.3     7.8    10.0
  157    -8.3    -1.2    10.0
  158    -5.2    -6.6    10.0
  159   -10.1     2.0    10.0
  160   -11.3     3.9    20.0
  161   -12.4     5.9    10.0
  162   -10.1    -2.0    10.0
  163   -11.3    -3.9    20.0
  164   -12.4    -5.9    10.0
  165    -3.2    -7.8    10.0
  166     3.2    -7.8    10.0
  167    -6.8    -7.8    10.0
  168    -9.0    -7.8    20.0
  169   -11.3    -7.8    10.0
  170    -3.4    -9.8    10.0
  171    -2.3   -11.7    20.0
  172    -1.1   -13.7    10.0
  173     5.2    -6.6    10.0
  174     8.3    -1.2    10.0
  175     3.4    -9.8    10.0
  176     2.3   -11.7    20.0
  177     1.1   -13.7    10.0
  178     6.8    -7.8    10.0
  179     9.0    -7.8    20.0
  180    11.3    -7.8    10.0
  181    11.3     0.0    40.0
  182     5.6     9.8    40.0
  183    -5.6     9.8    40.0
  184   -11.3     0.0    40.0
  185    -5.6    -9.8    40.0
  186     5.6    -9.8    40.0
  187    16.9     9.8    40.0
  188     0.0    19.5    40.0
  189   -16.9     9.8    40.0
  190   -16.9    -9.8    40.0
  191     0.0   -19.5    40.0
  192    16.9    -9.8    40.0
  193    10.4     1.5    10.0
  194     6.5     8.3    10.0
  195    12.7    -2.4    10.0
  196    14.1    -4.9    20.0
  197    15.5    -7.3    10.0
  198    12.7     2.4    10.0
  199    14.1     4.9    20.0
  200    15.5     7.3    10.0
  201     3.9     9.8    10.0
  202    -3.9     9.8    10.0
  203     8.5     9.8    10.0
  204    11.3     9.8    20.0
  205    14.1     9.8    10.0
  206     4.2    12.2    10.0
  207     2.8    14.6    20.0
  208     1.4    17.1    10.0
  209    -6.5     8.3    10.0
  210   -10.4     1.5    10.0
  211    -4.2    12.2    10.0
  212    -2.8    14.6    20.0
  213    -1.4    17.1    10.0
  214    -8.5     9.8    10.0
  215   -11.3     9.8    20.0
  216   -14.1     9.8    10.0
  217   -10.4    -1.5    10.0
  218    -6.5    -8.3    10.0
  219   -12.7     2.4    10.0
  220   -14.1     4.9    20.0
  221   -15.5     7.3    10.0
  222   -12.7    -2.4    10.0
  223   -14.1    -4.9    20.0
  224   -15.5    -7.3    10.0
  225    -3.9    -9.8    10.0
  226     3.9    -9.8    10.0
  227    -8.5    -9.8    10.0
  228   -11.3    -9.8    20.0
  229   -14.1    -9.8    10.0
  230    -4.2   -12.2    10.0
  231    -2.8   -14.6    20.0
  232    -1.4   -17.1    10.0
  233     6.5    -8.3    10.0
  234    10.4    -1.5    10.0
  235     4.2   -12.2    10.0
  236     2.8   -14.6    20.0
  237     1.4   -17.1    10.0
  238     8.5    -9.8    10.0
  239    11.3    -9.8    20.0
  240    14.1    -9.8    10.0
Node - number of items - h - w for each item
    0   0
    1   1   14    3
    2   4    4   13    7   10   11    6   14    3
    3   1    9    6
    4   4    6    6   19    3   10    3    6    3
    5   4    7    7   10    5   20    3   26    2
    6   4    8   10   14    4   27    3   16    3
    7   2    6    6   16    3
    8   1    4   11
    9   2   14    5   29    4
   10   3    5   13    4    6   32    3
   11   2   15    4   13    4
   12   1    8   13
   13   3   14    7    4    4   13    3
   14   4   12    8    5    7   13    5   22    2
   15   3    4    6   13    5   27    4
   16   2   10    4   24    3
   17   3    5   11   15    7   23    2
   18   4    6    9   15    6   32    2    7    2
   19   4    7    8   13    4   10    4   14    2
   20   4    5   13    4    9    7    6   14    3
   21   2    5    6   14    5
   22   1   25    2
   23   3   12    6   20    4   12    4
   24   2    4    7    9    6
   25   3   11    4   25    3   24    3
   26   4    6   13    4   13    8    7   13    4
   27   3    4   10   21    3   17    3
   28   4   14    6   11    6   11    5   24    3
   29   1    4   10
   30   3    7    8    8    6   28    2
   31   4    8    7    8    7    8    5   30    2
   32   2   14    8   20    3
   33   1   18    4
   34   4    4   13    6    7   14    6   23    4
   35   4   10    7    6    6    6    3   12    2
   36   1    4    9
   37   4    5   14   14    7    7    6   26    4
   38   1   11    5
   39   1   26    3
   40   1   29    3
   41   2    9    7   15    4
   42   4    7   12    6    8    7    7   11    5
   43   3    8   12   10    7   16    4
   44   2    4   14    6    5
   45   1    6    7
   46   1    8   10
   47   1    9    4
   48   1   10    8
   49   2    7   13    4    7
   50   1   22    4
   51   3   15    4   12    4   13    2
   52   1   15    8
   53   1   20    4
   54   3   27    4   18    3   14    3
   55   2   14    8   12    2
   56   3   11    3    8    3   31    2
   57   4    9    5   29    4   14    3   14    3
   58   2    6   10   11    7
   59   1   17    4
   60   3    7    7    7    5   28    3
   61   4    8    9   12    7   11    6   22    2
   62   2   13    7   30    4
   63   4    6    8    6    5    4    3    9    2
   64   2   11    5   28    2
   65   1   14    5
   66   3   10    6   23    4   14    2
   67   2    8    6   20    3
   68   2   28    4   22    3
   69   4   10    7    6    5   31    3   19    3
   70   3    8   10   10    7   30    2
   71   2    7   11    5    5
   72   2    8    5   15    4
   73   3   11    6   30    3   11    3
   74   4    6   12    5   11   18    3   18    3
   75   2   21    4    5    4
   76   1   28    2
   77   1   18    4
   78   4   27    4   12    3   11    3    4    2
   79   1    9    4
   80   4    5    6   19    4   17    3    9    3
   81   1   19    4
   82   2   20    3   30    2
   83   4    9    7   19    4   10    3   13    2
   84   2    5    6   17    3
   85   3   27    3   27    3   24    3
   86   3    7   10    4    8   14    3
   87   2    7    7   31    4
   88   3    4    6   29    3   24    3
   89   3    6   12   12    6   23    3
   90   1    5   10
   91   3    4   10   11    5   13    4
   92   2   14    3   10    2
   93   2    5    7   27    2
   94   2    6    6    4    6
   95   4    6   11    4   10    7    7   20    2
   96   4    6    9   12    7    7    7    5    6
   97   1    8    3
   98   4    6    9    5    7   29    3   20    3
   99   1    6    6
  100   4   13    6    9    5   31    3    5    2
  101   1   14    4
  102   1   29    4
  103   4    5    6   19    3   16    3   26    2
  104   2    8    2    5    2
  105   1    4    8
  106   1   13    3
  107   2    6    6    9    3
  108   3   13    4   11    2    6    2
  109   1    6    2
  110   4    7   13    5   10    5    9   16    8
  111   1   16    3
  112   1   13    3
  113   3    5    8    9    6    9    4
  114   4    6    9   16    6    7    6    4    3
  115   4    7   13    6    8   14    7    7    6
  116   2    4   12    5   10
  117   4    4   11    8    7    9    6   28    3
  118   3    8   11   24    4   15    4
  119   2    7    8   14    3
  120   2    5    8    8    6
  121   2    7    8   19    3
  122   3   11    7    7    7   16    2
  123   1   29    4
  124   4    6   12    8   11    8   10   12    7
  125   3    7   14   16    7   19    3
  126   1   14    3
  127   2    5    5    7    2
  128   1   30    3
  129   3    9    6   12    5   11    3
  130   1    6    6
  131   4    6    8    8    6    7    6   29    4
  132   2   16    4   17    3
  133   4    7   10   16    5    7    5    9    3
  134   2    5    8    8    5
  135   4    5    5   21    4   14    4   23    3
  136   4    6    8   13    3   29    2   23    2
  137   4    5   11   25    4   29    3   28    3
  138   4    5   11    7    9   27    3   27    3
  139   3    8   10    8    9    9    5
  140   1   14    5
  141   3    6    8    6    5   23    4
  142   4    7    7    7    7   11    5   13    4
  143   1    5    7
  144   2    4    6    5    2
  145   3    7   11   15    7   14    3
  146   4    5   10   11    7   31    3   26    3
  147   2    7    7   31    4
  148   2   13    6   13    4
  149   4    6   13    5   11    4    8   28    4
  150   3   13    4   11    4    4    3
  151   2    7   14    5    8
  152   1   14    3
  153   1   30    4
  154   1   28    3
  155   4    9    5   25    4   27    3   23    3
  156   3   10    6    4    6   21    3
  157   1   26    3
  158   2   13    5   15    3
  159   3    6   12   10    8   14    5
  160   1    9    6
  161   2   25    3   25    2
  162   2    5    7   28    3
  163   1    4    7
  164   4    7   12   13    4   10    4   23    2
  165   1   13    3
  166   1    7   11
  167   4    5   10    6    8   13    6   21    3
  168   2   10    3   12    2
  169   1    5    7
  170   4    6   14    5   12   15    3    4    3
  171   1   13    4
  172   3    4   13   11    4   28    3
  173   3   11    5    5    5   12    2
  174   3    6    7   32    3   13    2
  175   4    8    8   13    7   11    7   24    3
  176   2    4    9   16    3
  177   3   13    6    9    4    5    3
  178   1    4    9
  179   1   13    2
  180   4    6   12    4    6    6    5   32    2
  181   4    7   12   12    7    7    7   12    4
  182   4    4   10   13    4    8    4   28    3
  183   3    6   12   10    6   22    4
  184   3    6   10    7    6   19    3
  185   4   14    5   11    5   30    3   26    2
  186   3   21    3   28    2   23    2
  187   2   12    5   22    3
  188   4    4    9    6    7    4    7   20    3
  189   1   22    3
  190   3   10    8    6    3   19    2
  191   1    5   11
  192   3    7    6    9    3   22    2
  193   4    7    8    6    6   15    3   14    3
  194   3    5   11   15    5    7    5
  195   1   11    7
  196   4    5   12    7    9    7    6   15    3
  197   2    9    6    8    6
  198   2   26    3   31    2
  199   3   11    8   15    5   11    2
  200   2    7    5   26    4
  201   2    7    5   19    4
  202   2    8    4   30    2
  203   2    6   10   21    4
  204   4    9    7   12    6   17    4   23    2
  205   4   12    8   11    6    5    3   26    2
  206   2    7   12    4   10
  207   3    5   13   16    3   27    2
  208   3   14    8    4    7    5    4
  209   2    7   10   14    7
  210   2    7    4   22    3
  211   2    5    6    7    5
  212   1    9    5
  213   2    5   10   19    2
  214   1    8    2
  215   1    7   11
  216   4    7    9    5    6   11    3    7    3
  217   3   14    7    9    6   24    4
  218   3    6   10   10    3   24    2
  219   4    7   11    6    9    6    7   13    3
  220   2   13    3   31    2
  221   4    7   14   13    4   25    3   15    3
  222   2   15    5    8    3
  223   4    7    7   13    4   11    4   19    2
  224   4    7   13    7    7   10    6    6    6
  225   3    4   13   23    4   19    2
  226   4    5   12    4    9    8    8    7    2
  227   2    5    6   13    2
  228   3    7   11    5    4   15    3
  229   4   15    4   26    3   19    3   19    3
  230   2    4    5   15    3
  231   4    6   11   12    6    6    6   28    4
  232   1   14    4
  233   4    8    6   10    5   31    3   28    3
  234   3    8   14    5    7   12    4
  235   3    6   10    7    5   28    3
  236   3    6   12    6   10   27    3
  237   3    4    6   16    3   24    2
  238   2    8    6   29    3
  239   2    6   13   24    3
  240   1    6    5
